Route #1:
Route #2: 9 15
Route #3: 26 16
Route #4: 29
Route #5: 17 18 22 6
Route #6: 31 7 1 3 12 27
Route #7: 19 21
Route #8: 10 30 25
Route #9: 24
Route #10: 11 28 23 8 4 13
Route #11: 14
Route #12: 2
Route #13: 20 5

Cost: 2130.2745791752063
